
Gurobi 10.0.1 (linux64) logging started Sun Nov 26 15:41:55 2023

Set parameter LogFile to value "ArtificialInstance/ExperimentV2/S3T3K1/AdSp/gurobi91.txt"
Gurobi Optimizer version 10.0.1 build v10.0.1rc0 (linux64)

CPU model: AMD EPYC 7H12 64-Core Processor, instruction set [SSE2|AVX|AVX2]
Thread count: 128 physical cores, 128 logical processors, using up to 32 threads

Academic license 656792 - for non-commercial use only - registered to b.___@student.vu.nl
Optimize a model with 2972 rows, 2884 columns and 10852 nonzeros
Model fingerprint: 0xb4fb6c85
Variable types: 0 continuous, 2884 integer (2884 binary)
Coefficient statistics:
  Matrix range     [1e+00, 1e+00]
  Objective range  [1e+00, 2e+01]
  Bounds range     [1e+00, 1e+00]
  RHS range        [1e+00, 1e+00]
Presolve removed 306 rows and 290 columns
Presolve time: 0.04s
Presolved: 2666 rows, 2594 columns, 10052 nonzeros
Variable types: 0 continuous, 2594 integer (2594 binary)
Found heuristic solution: objective 417.4882722

Root relaxation: objective 3.868735e+01, 1854 iterations, 0.05 seconds (0.04 work units)

    Nodes    |    Current Node    |     Objective Bounds      |     Work
 Expl Unexpl |  Obj  Depth IntInf | Incumbent    BestBd   Gap | It/Node Time

     0     0   38.68735    0  342  417.48827   38.68735  90.7%     -    0s
H    0     0                      95.5139821   38.68735  59.5%     -    0s
H    0     0                      90.1822160   38.68735  57.1%     -    0s
H    0     0                      42.3174017   38.68735  8.58%     -    0s
*    0     0               0      40.0125962   40.01260  0.00%     -    0s

Cutting planes:
  Gomory: 4
  Zero half: 5

Explored 1 nodes (2654 simplex iterations) in 0.19 seconds (0.12 work units)
Thread count was 32 (of 128 available processors)

Solution count 5: 40.0126 42.3174 90.1822 ... 417.488

Optimal solution found (tolerance 1.00e-04)
Best objective 4.001259618003e+01, best bound 4.001259618003e+01, gap 0.0000%
